
******************************************************************************
This program contains Ipopt, a library for large-scale nonlinear optimization.
 Ipopt is released as open source code under the Eclipse Public License (EPL).
         For more information visit http://projects.coin-or.org/Ipopt

This version of Ipopt was compiled from source code available at
    https://github.com/IDAES/Ipopt as part of the Institute for the Design of
    Advanced Energy Systems Process Systems Engineering Framework (IDAES PSE
    Framework) Copyright (c) 2018-2019. See https://github.com/IDAES/idaes-pse.

This version of Ipopt was compiled using HSL, a collection of Fortran codes
    for large-scale scientific computation.  All technical papers, sales and
    publicity material resulting from use of the HSL codes within IPOPT must
    contain the following acknowledgement:
        HSL, a collection of Fortran codes for large-scale scientific
        computation. See http://www.hsl.rl.ac.uk.
******************************************************************************

This is Ipopt version 3.13.2, running with linear solver ma27.

Number of nonzeros in equality constraint Jacobian...:      808
Number of nonzeros in inequality constraint Jacobian.:        0
Number of nonzeros in Lagrangian Hessian.............:      702

Total number of variables............................:      351
                     variables with only lower bounds:      108
                variables with lower and upper bounds:      189
                     variables with only upper bounds:        0
Total number of equality constraints.................:      350
Total number of inequality constraints...............:        0
        inequality constraints with only lower bounds:        0
   inequality constraints with lower and upper bounds:        0
        inequality constraints with only upper bounds:        0

iter    objective    inf_pr   inf_du lg(mu)  ||d||  lg(rg) alpha_du alpha_pr  ls
   0  0.0000000e+00 4.51e-01 8.88e-16  -1.0 0.00e+00    -  0.00e+00 0.00e+00   0
   1  4.4776532e+00 1.40e+00 4.03e+04  -1.0 2.60e+05    -  5.11e-01 4.98e-01h  1
   2  4.9194320e+00 1.33e+00 3.85e+04  -1.0 1.54e+05    -  8.02e-01 4.14e-02h  1
   3  5.7166015e+00 1.23e+00 3.61e+04  -1.0 2.07e+05    -  8.03e-01 6.96e-02h  1
   4  2.6718859e+01 1.00e-01 3.18e+03  -1.0 1.96e+05    -  8.18e-01 9.90e-01h  1
   5  3.0374844e+01 9.98e-04 1.18e+03  -1.0 2.29e+04    -  9.70e-01 9.90e-01h  1
   6  3.0450632e+01 1.07e-05 1.49e+01  -1.0 4.60e+02    -  9.90e-01 9.90e-01h  1
   7  3.0451619e+01 1.06e-05 2.18e+07  -1.0 8.54e+02    -  9.90e-01 1.55e-02f  7
   8  3.0455340e+01 1.03e-05 4.30e+07  -1.0 1.62e+03    -  9.95e-01 3.09e-02f  6
   9  3.0571786e+01 7.97e-05 6.64e+05  -1.0 1.59e+03    -  1.00e+00 9.90e-01H  1
iter    objective    inf_pr   inf_du lg(mu)  ||d||  lg(rg) alpha_du alpha_pr  ls
  10  3.0572142e+01 8.36e-07 2.34e+07  -1.0 4.73e+00    -  1.00e+00 9.90e-01h  1
  11  3.0572142e+01 8.36e-09 2.34e+09  -1.0 7.60e-04    -  1.00e+00 9.90e-01h  1
  12  3.0572142e+01 1.57e-10 2.34e+11  -1.0 8.00e-06    -  1.00e+00 9.90e-01h  1
In iteration 12, 27 Slacks too small, adjusting variable bounds
  13  3.0572142e+01 1.32e-10 2.34e+13  -1.0 1.44e-04    -  1.00e+00 9.90e-01h  1
  14  3.0572142e+01 2.87e-12 2.38e-01  -1.0 1.21e-04    -  1.00e+00 1.00e+00h  1
  15  3.0572112e+01 5.24e-11 2.38e+13  -9.0 1.99e+03    -  9.98e-01 2.00e-04f 13
  16  3.0572097e+01 6.54e-11 2.39e+13  -9.0 1.64e+03    -  9.98e-01 1.22e-04f 14
  17  3.0572096e+01 6.50e-11 2.39e+13  -9.0 1.63e+03    -  1.00e+00 7.63e-06f 18
  18  3.0572092e+01 6.63e-11 2.39e+13  -9.0 1.63e+03    -  1.00e+00 3.05e-05f 16
  19  3.0572078e+01 7.93e-11 2.39e+13  -9.0 1.63e+03    -  1.00e+00 1.22e-04f 14
iter    objective    inf_pr   inf_du lg(mu)  ||d||  lg(rg) alpha_du alpha_pr  ls
  20  3.0451127e+01 1.01e-03 2.45e+07  -9.0 1.63e+03    -  1.00e+00 1.00e+00f  1
  21  3.0449875e+01 1.43e-08 4.78e-04  -9.0 1.59e+01    -  1.00e+00 1.00e+00h  1
  22  3.0449875e+01 2.52e-10 5.44e-10  -9.0 1.50e-04    -  1.00e+00 1.00e+00h  1

Number of Iterations....: 22

                                   (scaled)                 (unscaled)
Objective...............:   3.0449875421651289e+01    3.0449875421651289e+01
Dual infeasibility......:   5.4405721666555213e-10    5.4405721666555213e-10
Constraint violation....:   2.5241608803128202e-10    2.5241608803128202e-10
Complementarity.........:   9.0909090910528219e-10    9.0909090910528219e-10
Overall NLP error.......:   2.5241608803128202e-10    9.0909090910528219e-10


Number of objective function evaluations             = 131
Number of objective gradient evaluations             = 23
Number of equality constraint evaluations            = 131
Number of inequality constraint evaluations          = 0
Number of equality constraint Jacobian evaluations   = 23
Number of inequality constraint Jacobian evaluations = 0
Number of Lagrangian Hessian evaluations             = 22
Total CPU secs in IPOPT (w/o function evaluations)   =      0.057
Total CPU secs in NLP function evaluations           =      1.091

EXIT: Optimal Solution Found.
